c A SAT instance generated from a 3-CNF formula that had 36 clauses and 12 variables
p cnf 12 36
-7 2 -10 0
-5 6 -3 0
-10 9 11 0
-12 11 2 0
-10 5 3 0
2 -8 10 0
8 -3 12 0
4 -9 -7 0
-11 8 3 0
-11 -5 -8 0
10 4 1 0
-12 -9 -1 0
3 -11 6 0
-1 -3 11 0
-12 6 1 0
-5 11 -3 0
-5 6 -11 0
4 -7 2 0
8 -12 -6 0
7 3 -11 0
5 12 7 0
3 7 -5 0
-2 -12 -4 0
4 -5 -12 0
-7 -6 12 0
6 12 -9 0
6 -10 -9 0
6 -4 -12 0
-7 12 -11 0
-9 -11 1 0
7 -9 -3 0
4 -1 2 0
-5 6 -7 0
-7 10 -2 0
2 -3 8 0
-12 2 -10 0
